language Essence 1.3

letting codeWordLength be 19
letting dist be
        function((1, 1) --> 0, (1, 2) --> 3, (1, 3) --> 1, (2, 1) --> 3, (2, 2) --> 0, (2, 3) --> 1, (3, 1) --> 1,
                 (3, 2) --> 1, (3, 3) --> 0)
letting maxDist be 6
letting minDist be 28
letting nbCharacter be 3
letting numOfCodeWords be 8
